100
100
100
100
99
99
99
99
98
98
97
96
96
96
96
95
95
95
95
91
90
89
88
87
86
84
83
83
82
80
79
77
77
76
76
74
74
74
73
72
72
71
71
70
69
68
67
67
66
66
65
63
60
60
59
59
58
57
57
56
56
54
53
53
53
53
52
51
50
50
50
50
49
47
47
46
46
45
44
43
42
42
42
41
41
39
38
38
38
37
37
36
36
36
35
35
35
33
32
32
32
31
